% Data for perfect square placement problem:
% http://www.hakank.org/minizinc/perfect_square_placement.mzn
% Data is originally from CSPLib:
% http://www.cs.st-andrews.ac.uk/~ianm/CSPLib/prob/prob009/results

% problem 203 
n = 634;
size = 25;
a = [15,17,24,26,33,43,44,54,57,60,63,73,79,81,88,109,119,160,161,172,173,227,234,235,239];

